(benchmark smt
:source { H-PILoT }
:logic AUFLIA
:category { generated }
:status unknown

:extrafuns ((d_1  Int))
:extrafuns ((d_10  Int))
:extrafuns ((d_11  Int))
:extrafuns ((d_12  Int))
:extrafuns ((d_13  Int))
:extrafuns ((d_14  Int))
:extrafuns ((d_15  Int))
:extrafuns ((d_16  Int))
:extrafuns ((d_17  Int))
:extrafuns ((d_18  Int))
:extrafuns ((d_19  Int))
:extrafuns ((d_2  Int))
:extrafuns ((d_20  Int))
:extrafuns ((d_21  Int))
:extrafuns ((d_22  Int))
:extrafuns ((d_23  Int))
:extrafuns ((d_24  Int))
:extrafuns ((d_25  Int))
:extrafuns ((d_26  Int))
:extrafuns ((d_27  Int))
:extrafuns ((d_28  Int))
:extrafuns ((d_29  Int))
:extrafuns ((d_3  Int))
:extrafuns ((d_30  Int))
:extrafuns ((d_31  Int))
:extrafuns ((d_32  Int))
:extrafuns ((d_33  Int))
:extrafuns ((d_34  Int))
:extrafuns ((d_35  Int))
:extrafuns ((d_36  Int))
:extrafuns ((d_37  Int))
:extrafuns ((d_38  Int))
:extrafuns ((d_4  Int))
:extrafuns ((d_5  Int))
:extrafuns ((d_6  Int))
:extrafuns ((d_7  Int))
:extrafuns ((d_8  Int))
:extrafuns ((d_9  Int))
:extrafuns ((e_39  Int))
:extrafuns ((e_40  Int))
:extrafuns ((e_41  Int))
:extrafuns ((e_42  Int))
:extrafuns ((e_43  Int))
:extrafuns ((e_44  Int))
:extrafuns ((e_45  Int))
:extrafuns ((e_46  Int))
:extrafuns ((e_47  Int))
:extrafuns ((e_48  Int))
:extrafuns ((e_49  Int))
:extrafuns ((e_50  Int))
:extrafuns ((e_51  Int))
:extrafuns ((e_52  Int))
:extrafuns ((e_53  Int))
:extrafuns ((e_54  Int))
:extrafuns ((m  Int))
:extrafuns ((mw  Int))
:extrafuns ((u  Int))
:extrafuns ((um  Int))
:extrafuns ((uv  Int))
:extrafuns ((uw  Int))
:extrafuns ((v  Int))
:extrafuns ((vm  Int))
:extrafuns ((vw  Int))
:extrafuns ((w  Int))

:assumption (= e_49 1)
:assumption (= e_53 1)
:assumption (= e_54 1)
:assumption (= e_50 1)
:assumption (= e_52 1)
:assumption (= e_51 1)
:assumption (<= mw um)
:assumption (= e_40 1)
:assumption (= e_39 1)
:assumption (or (= e_39 0) (= e_40 0) (>= uw uv) (>= vw uv))
:assumption (not (= v m))
:assumption (not (= w m))
:assumption (not (= v w))
:assumption (not (= u m))
:assumption (not (= u w))
:assumption (not (= u v))
:assumption (= (* 2 e_45) (+ e_46 e_47))
:assumption (= (* 2 e_41) (+ e_42 e_43))
:assumption (= d_21 (- d_5 d_20))
:assumption (= d_15 (* d_14 d_14))
:assumption (= d_29 (- d_2 d_17))
:assumption (= d_13 e_48)
:assumption (= d_3 (- d_1 d_2))
:assumption (= d_23 (+ d_19 d_22))
:assumption (= d_1 e_42)
:assumption (= d_31 (- d_6 d_20))
:assumption (= d_25 (* d_24 d_24))
:assumption (= d_32 (* d_31 d_31))
:assumption (= d_18 (- d_1 d_17))
:assumption (= d_38 (+ d_35 d_37))
:assumption (= d_10 e_44)
:assumption (= d_30 (* d_29 d_29))
:assumption (= d_26 (- d_6 d_13))
:assumption (= d_14 (- d_5 d_13))
:assumption (= d_33 (+ d_30 d_32))
:assumption (= d_5 e_46)
:assumption (= d_20 e_45)
:assumption (= d_9 (+ d_4 d_8))
:assumption (= d_4 (* d_3 d_3))
:assumption (= d_7 (- d_5 d_6))
:assumption (= d_22 (* d_21 d_21))
:assumption (= d_2 e_43)
:assumption (= d_27 (* d_26 d_26))
:assumption (= d_34 (- d_17 d_10))
:assumption (= d_35 (* d_34 d_34))
:assumption (= d_28 (+ d_25 d_27))
:assumption (= d_37 (* d_36 d_36))
:assumption (= d_16 (+ d_12 d_15))
:assumption (= d_6 e_47)
:assumption (= d_8 (* d_7 d_7))
:assumption (= d_11 (- d_1 d_10))
:assumption (= d_19 (* d_18 d_18))
:assumption (= d_12 (* d_11 d_11))
:assumption (= d_36 (- d_20 d_13))
:assumption (= d_24 (- d_2 d_10))
:assumption (= d_17 e_41)
:assumption (implies (= m w) (= e_41 e_44))
:assumption (implies (= m v) (= e_41 e_43))
:assumption (implies (= m u) (= e_41 e_42))
:assumption (implies (= u w) (= e_42 e_44))
:assumption (implies (= u v) (= e_42 e_43))
:assumption (implies (= v w) (= e_43 e_44))
:assumption (implies (= m w) (= e_45 e_48))
:assumption (implies (= m v) (= e_45 e_47))
:assumption (implies (= m u) (= e_45 e_46))
:assumption (implies (= u w) (= e_46 e_48))
:assumption (implies (= u v) (= e_46 e_47))
:assumption (implies (= v w) (= e_47 e_48))
:assumption (implies (and (= mw vw) (= d_38 d_28)) (= e_49 e_54))
:assumption (implies (and (= mw vm) (= d_38 d_33)) (= e_49 e_53))
:assumption (implies (and (= mw uw) (= d_38 d_16)) (= e_49 e_52))
:assumption (implies (and (= mw uv) (= d_38 d_9)) (= e_49 e_51))
:assumption (implies (and (= mw um) (= d_38 d_23)) (= e_49 e_50))
:assumption (implies (and (= um vw) (= d_23 d_28)) (= e_50 e_54))
:assumption (implies (and (= um vm) (= d_23 d_33)) (= e_50 e_53))
:assumption (implies (and (= um uw) (= d_23 d_16)) (= e_50 e_52))
:assumption (implies (and (= um uv) (= d_23 d_9)) (= e_50 e_51))
:assumption (implies (and (= uv vw) (= d_9 d_28)) (= e_51 e_54))
:assumption (implies (and (= uv vm) (= d_9 d_33)) (= e_51 e_53))
:assumption (implies (and (= uv uw) (= d_9 d_16)) (= e_51 e_52))
:assumption (implies (and (= uw vw) (= d_16 d_28)) (= e_52 e_54))
:assumption (implies (and (= uw vm) (= d_16 d_33)) (= e_52 e_53))
:assumption (implies (and (= vm vw) (= d_33 d_28)) (= e_53 e_54))
:assumption (or (= e_40 1) (= e_40 0))
:assumption (or (= e_39 1) (= e_39 0))
:assumption (implies (and (= u v) (= v u) (= e_39 1)) (= e_39 1))
:assumption (implies (and (= w u) (= e_39 1)) (= e_40 1))
:assumption (implies (= e_49 1) (= (* mw mw) d_38))
:assumption (implies (= e_50 1) (= (* um um) d_23))
:assumption (implies (= e_51 1) (= (* uv uv) d_9))
:assumption (implies (= e_52 1) (= (* uw uw) d_16))
:assumption (implies (= e_53 1) (= (* vm vm) d_33))
:assumption (implies (= e_54 1) (= (* vw vw) d_28))
:assumption (implies (and (= (* mw mw) d_38) (>= mw 0)) (= e_49 1))
:assumption (implies (and (= (* um um) d_23) (>= um 0)) (= e_50 1))
:assumption (implies (and (= (* uv uv) d_9) (>= uv 0)) (= e_51 1))
:assumption (implies (and (= (* uw uw) d_16) (>= uw 0)) (= e_52 1))
:assumption (implies (and (= (* vm vm) d_33) (>= vm 0)) (= e_53 1))
:assumption (implies (and (= (* vw vw) d_28) (>= vw 0)) (= e_54 1))
:assumption (implies (= e_49 1) (>= mw 0))
:assumption (implies (= e_50 1) (>= um 0))
:assumption (implies (= e_51 1) (>= uv 0))
:assumption (implies (= e_52 1) (>= uw 0))
:assumption (implies (= e_53 1) (>= vm 0))
:assumption (implies (= e_54 1) (>= vw 0))
:assumption (implies (< mw 0) (= e_49 0))
:assumption (implies (< um 0) (= e_50 0))
:assumption (implies (< uv 0) (= e_51 0))
:assumption (implies (< uw 0) (= e_52 0))
:assumption (implies (< vm 0) (= e_53 0))
:assumption (implies (< vw 0) (= e_54 0))
:assumption (or (= e_49 0) (= e_49 1))
:assumption (or (= e_50 0) (= e_50 1))
:assumption (or (= e_51 0) (= e_51 1))
:assumption (or (= e_52 0) (= e_52 1))
:assumption (or (= e_53 0) (= e_53 1))
:assumption (or (= e_54 0) (= e_54 1))
:assumption (implies (= m u) (= e_41 e_42))
:assumption (implies (= m v) (= e_41 e_43))
:assumption (implies (= m w) (= e_41 e_44))
:assumption (implies (= u m) (= e_42 e_41))
:assumption (implies (= u v) (= e_42 e_43))
:assumption (implies (= u w) (= e_42 e_44))
:assumption (implies (= v m) (= e_43 e_41))
:assumption (implies (= v u) (= e_43 e_42))
:assumption (implies (= v w) (= e_43 e_44))
:assumption (implies (= w m) (= e_44 e_41))
:assumption (implies (= w u) (= e_44 e_42))
:assumption (implies (= w v) (= e_44 e_43))
:assumption (implies (= m u) (= e_45 e_46))
:assumption (implies (= m v) (= e_45 e_47))
:assumption (implies (= m w) (= e_45 e_48))
:assumption (implies (= u m) (= e_46 e_45))
:assumption (implies (= u v) (= e_46 e_47))
:assumption (implies (= u w) (= e_46 e_48))
:assumption (implies (= v m) (= e_47 e_45))
:assumption (implies (= v u) (= e_47 e_46))
:assumption (implies (= v w) (= e_47 e_48))
:assumption (implies (= w m) (= e_48 e_45))
:assumption (implies (= w u) (= e_48 e_46))
:assumption (implies (= w v) (= e_48 e_47))
:assumption (implies (and (= m u) (= m m) (= e_41 e_42) (= e_45 e_45)) (= m u))
:assumption (implies (and (= u u) (= m m) (= e_41 e_42) (= e_45 e_46)) (= m u))
:assumption (implies (and (= v u) (= m m) (= e_41 e_42) (= e_45 e_47)) (= m u))
:assumption (implies (and (= w u) (= m m) (= e_41 e_42) (= e_45 e_48)) (= m u))
:assumption (implies (and (= m u) (= u m) (= e_41 e_42) (= e_46 e_45)) (= m u))
:assumption (implies (and (= u u) (= u m) (= e_41 e_42) (= e_46 e_46)) (= m u))
:assumption (implies (and (= v u) (= u m) (= e_41 e_42) (= e_46 e_47)) (= m u))
:assumption (implies (and (= w u) (= u m) (= e_41 e_42) (= e_46 e_48)) (= m u))
:assumption (implies (and (= m u) (= v m) (= e_41 e_42) (= e_47 e_45)) (= m u))
:assumption (implies (and (= u u) (= v m) (= e_41 e_42) (= e_47 e_46)) (= m u))
:assumption (implies (and (= v u) (= v m) (= e_41 e_42) (= e_47 e_47)) (= m u))
:assumption (implies (and (= w u) (= v m) (= e_41 e_42) (= e_47 e_48)) (= m u))
:assumption (implies (and (= m u) (= w m) (= e_41 e_42) (= e_48 e_45)) (= m u))
:assumption (implies (and (= u u) (= w m) (= e_41 e_42) (= e_48 e_46)) (= m u))
:assumption (implies (and (= v u) (= w m) (= e_41 e_42) (= e_48 e_47)) (= m u))
:assumption (implies (and (= w u) (= w m) (= e_41 e_42) (= e_48 e_48)) (= m u))
:assumption (implies (and (= m v) (= m m) (= e_41 e_43) (= e_45 e_45)) (= m v))
:assumption (implies (and (= u v) (= m m) (= e_41 e_43) (= e_45 e_46)) (= m v))
:assumption (implies (and (= v v) (= m m) (= e_41 e_43) (= e_45 e_47)) (= m v))
:assumption (implies (and (= w v) (= m m) (= e_41 e_43) (= e_45 e_48)) (= m v))
:assumption (implies (and (= m v) (= u m) (= e_41 e_43) (= e_46 e_45)) (= m v))
:assumption (implies (and (= u v) (= u m) (= e_41 e_43) (= e_46 e_46)) (= m v))
:assumption (implies (and (= v v) (= u m) (= e_41 e_43) (= e_46 e_47)) (= m v))
:assumption (implies (and (= w v) (= u m) (= e_41 e_43) (= e_46 e_48)) (= m v))
:assumption (implies (and (= m v) (= v m) (= e_41 e_43) (= e_47 e_45)) (= m v))
:assumption (implies (and (= u v) (= v m) (= e_41 e_43) (= e_47 e_46)) (= m v))
:assumption (implies (and (= v v) (= v m) (= e_41 e_43) (= e_47 e_47)) (= m v))
:assumption (implies (and (= w v) (= v m) (= e_41 e_43) (= e_47 e_48)) (= m v))
:assumption (implies (and (= m v) (= w m) (= e_41 e_43) (= e_48 e_45)) (= m v))
:assumption (implies (and (= u v) (= w m) (= e_41 e_43) (= e_48 e_46)) (= m v))
:assumption (implies (and (= v v) (= w m) (= e_41 e_43) (= e_48 e_47)) (= m v))
:assumption (implies (and (= w v) (= w m) (= e_41 e_43) (= e_48 e_48)) (= m v))
:assumption (implies (and (= m w) (= m m) (= e_41 e_44) (= e_45 e_45)) (= m w))
:assumption (implies (and (= u w) (= m m) (= e_41 e_44) (= e_45 e_46)) (= m w))
:assumption (implies (and (= v w) (= m m) (= e_41 e_44) (= e_45 e_47)) (= m w))
:assumption (implies (and (= w w) (= m m) (= e_41 e_44) (= e_45 e_48)) (= m w))
:assumption (implies (and (= m w) (= u m) (= e_41 e_44) (= e_46 e_45)) (= m w))
:assumption (implies (and (= u w) (= u m) (= e_41 e_44) (= e_46 e_46)) (= m w))
:assumption (implies (and (= v w) (= u m) (= e_41 e_44) (= e_46 e_47)) (= m w))
:assumption (implies (and (= w w) (= u m) (= e_41 e_44) (= e_46 e_48)) (= m w))
:assumption (implies (and (= m w) (= v m) (= e_41 e_44) (= e_47 e_45)) (= m w))
:assumption (implies (and (= u w) (= v m) (= e_41 e_44) (= e_47 e_46)) (= m w))
:assumption (implies (and (= v w) (= v m) (= e_41 e_44) (= e_47 e_47)) (= m w))
:assumption (implies (and (= w w) (= v m) (= e_41 e_44) (= e_47 e_48)) (= m w))
:assumption (implies (and (= m w) (= w m) (= e_41 e_44) (= e_48 e_45)) (= m w))
:assumption (implies (and (= u w) (= w m) (= e_41 e_44) (= e_48 e_46)) (= m w))
:assumption (implies (and (= v w) (= w m) (= e_41 e_44) (= e_48 e_47)) (= m w))
:assumption (implies (and (= w w) (= w m) (= e_41 e_44) (= e_48 e_48)) (= m w))
:assumption (implies (and (= m m) (= m u) (= e_42 e_41) (= e_45 e_45)) (= u m))
:assumption (implies (and (= u m) (= m u) (= e_42 e_41) (= e_45 e_46)) (= u m))
:assumption (implies (and (= v m) (= m u) (= e_42 e_41) (= e_45 e_47)) (= u m))
:assumption (implies (and (= w m) (= m u) (= e_42 e_41) (= e_45 e_48)) (= u m))
:assumption (implies (and (= m m) (= u u) (= e_42 e_41) (= e_46 e_45)) (= u m))
:assumption (implies (and (= u m) (= u u) (= e_42 e_41) (= e_46 e_46)) (= u m))
:assumption (implies (and (= v m) (= u u) (= e_42 e_41) (= e_46 e_47)) (= u m))
:assumption (implies (and (= w m) (= u u) (= e_42 e_41) (= e_46 e_48)) (= u m))
:assumption (implies (and (= m m) (= v u) (= e_42 e_41) (= e_47 e_45)) (= u m))
:assumption (implies (and (= u m) (= v u) (= e_42 e_41) (= e_47 e_46)) (= u m))
:assumption (implies (and (= v m) (= v u) (= e_42 e_41) (= e_47 e_47)) (= u m))
:assumption (implies (and (= w m) (= v u) (= e_42 e_41) (= e_47 e_48)) (= u m))
:assumption (implies (and (= m m) (= w u) (= e_42 e_41) (= e_48 e_45)) (= u m))
:assumption (implies (and (= u m) (= w u) (= e_42 e_41) (= e_48 e_46)) (= u m))
:assumption (implies (and (= v m) (= w u) (= e_42 e_41) (= e_48 e_47)) (= u m))
:assumption (implies (and (= w m) (= w u) (= e_42 e_41) (= e_48 e_48)) (= u m))
:assumption (implies (and (= m v) (= m u) (= e_42 e_43) (= e_45 e_45)) (= u v))
:assumption (implies (and (= u v) (= m u) (= e_42 e_43) (= e_45 e_46)) (= u v))
:assumption (implies (and (= v v) (= m u) (= e_42 e_43) (= e_45 e_47)) (= u v))
:assumption (implies (and (= w v) (= m u) (= e_42 e_43) (= e_45 e_48)) (= u v))
:assumption (implies (and (= m v) (= u u) (= e_42 e_43) (= e_46 e_45)) (= u v))
:assumption (implies (and (= u v) (= u u) (= e_42 e_43) (= e_46 e_46)) (= u v))
:assumption (implies (and (= v v) (= u u) (= e_42 e_43) (= e_46 e_47)) (= u v))
:assumption (implies (and (= w v) (= u u) (= e_42 e_43) (= e_46 e_48)) (= u v))
:assumption (implies (and (= m v) (= v u) (= e_42 e_43) (= e_47 e_45)) (= u v))
:assumption (implies (and (= u v) (= v u) (= e_42 e_43) (= e_47 e_46)) (= u v))
:assumption (implies (and (= v v) (= v u) (= e_42 e_43) (= e_47 e_47)) (= u v))
:assumption (implies (and (= w v) (= v u) (= e_42 e_43) (= e_47 e_48)) (= u v))
:assumption (implies (and (= m v) (= w u) (= e_42 e_43) (= e_48 e_45)) (= u v))
:assumption (implies (and (= u v) (= w u) (= e_42 e_43) (= e_48 e_46)) (= u v))
:assumption (implies (and (= v v) (= w u) (= e_42 e_43) (= e_48 e_47)) (= u v))
:assumption (implies (and (= w v) (= w u) (= e_42 e_43) (= e_48 e_48)) (= u v))
:assumption (implies (and (= m w) (= m u) (= e_42 e_44) (= e_45 e_45)) (= u w))
:assumption (implies (and (= u w) (= m u) (= e_42 e_44) (= e_45 e_46)) (= u w))
:assumption (implies (and (= v w) (= m u) (= e_42 e_44) (= e_45 e_47)) (= u w))
:assumption (implies (and (= w w) (= m u) (= e_42 e_44) (= e_45 e_48)) (= u w))
:assumption (implies (and (= m w) (= u u) (= e_42 e_44) (= e_46 e_45)) (= u w))
:assumption (implies (and (= u w) (= u u) (= e_42 e_44) (= e_46 e_46)) (= u w))
:assumption (implies (and (= v w) (= u u) (= e_42 e_44) (= e_46 e_47)) (= u w))
:assumption (implies (and (= w w) (= u u) (= e_42 e_44) (= e_46 e_48)) (= u w))
:assumption (implies (and (= m w) (= v u) (= e_42 e_44) (= e_47 e_45)) (= u w))
:assumption (implies (and (= u w) (= v u) (= e_42 e_44) (= e_47 e_46)) (= u w))
:assumption (implies (and (= v w) (= v u) (= e_42 e_44) (= e_47 e_47)) (= u w))
:assumption (implies (and (= w w) (= v u) (= e_42 e_44) (= e_47 e_48)) (= u w))
:assumption (implies (and (= m w) (= w u) (= e_42 e_44) (= e_48 e_45)) (= u w))
:assumption (implies (and (= u w) (= w u) (= e_42 e_44) (= e_48 e_46)) (= u w))
:assumption (implies (and (= v w) (= w u) (= e_42 e_44) (= e_48 e_47)) (= u w))
:assumption (implies (and (= w w) (= w u) (= e_42 e_44) (= e_48 e_48)) (= u w))
:assumption (implies (and (= m m) (= m v) (= e_43 e_41) (= e_45 e_45)) (= v m))
:assumption (implies (and (= u m) (= m v) (= e_43 e_41) (= e_45 e_46)) (= v m))
:assumption (implies (and (= v m) (= m v) (= e_43 e_41) (= e_45 e_47)) (= v m))
:assumption (implies (and (= w m) (= m v) (= e_43 e_41) (= e_45 e_48)) (= v m))
:assumption (implies (and (= m m) (= u v) (= e_43 e_41) (= e_46 e_45)) (= v m))
:assumption (implies (and (= u m) (= u v) (= e_43 e_41) (= e_46 e_46)) (= v m))
:assumption (implies (and (= v m) (= u v) (= e_43 e_41) (= e_46 e_47)) (= v m))
:assumption (implies (and (= w m) (= u v) (= e_43 e_41) (= e_46 e_48)) (= v m))
:assumption (implies (and (= m m) (= v v) (= e_43 e_41) (= e_47 e_45)) (= v m))
:assumption (implies (and (= u m) (= v v) (= e_43 e_41) (= e_47 e_46)) (= v m))
:assumption (implies (and (= v m) (= v v) (= e_43 e_41) (= e_47 e_47)) (= v m))
:assumption (implies (and (= w m) (= v v) (= e_43 e_41) (= e_47 e_48)) (= v m))
:assumption (implies (and (= m m) (= w v) (= e_43 e_41) (= e_48 e_45)) (= v m))
:assumption (implies (and (= u m) (= w v) (= e_43 e_41) (= e_48 e_46)) (= v m))
:assumption (implies (and (= v m) (= w v) (= e_43 e_41) (= e_48 e_47)) (= v m))
:assumption (implies (and (= w m) (= w v) (= e_43 e_41) (= e_48 e_48)) (= v m))
:assumption (implies (and (= m u) (= m v) (= e_43 e_42) (= e_45 e_45)) (= v u))
:assumption (implies (and (= u u) (= m v) (= e_43 e_42) (= e_45 e_46)) (= v u))
:assumption (implies (and (= v u) (= m v) (= e_43 e_42) (= e_45 e_47)) (= v u))
:assumption (implies (and (= w u) (= m v) (= e_43 e_42) (= e_45 e_48)) (= v u))
:assumption (implies (and (= m u) (= u v) (= e_43 e_42) (= e_46 e_45)) (= v u))
:assumption (implies (and (= u u) (= u v) (= e_43 e_42) (= e_46 e_46)) (= v u))
:assumption (implies (and (= v u) (= u v) (= e_43 e_42) (= e_46 e_47)) (= v u))
:assumption (implies (and (= w u) (= u v) (= e_43 e_42) (= e_46 e_48)) (= v u))
:assumption (implies (and (= m u) (= v v) (= e_43 e_42) (= e_47 e_45)) (= v u))
:assumption (implies (and (= u u) (= v v) (= e_43 e_42) (= e_47 e_46)) (= v u))
:assumption (implies (and (= v u) (= v v) (= e_43 e_42) (= e_47 e_47)) (= v u))
:assumption (implies (and (= w u) (= v v) (= e_43 e_42) (= e_47 e_48)) (= v u))
:assumption (implies (and (= m u) (= w v) (= e_43 e_42) (= e_48 e_45)) (= v u))
:assumption (implies (and (= u u) (= w v) (= e_43 e_42) (= e_48 e_46)) (= v u))
:assumption (implies (and (= v u) (= w v) (= e_43 e_42) (= e_48 e_47)) (= v u))
:assumption (implies (and (= w u) (= w v) (= e_43 e_42) (= e_48 e_48)) (= v u))
:assumption (implies (and (= m w) (= m v) (= e_43 e_44) (= e_45 e_45)) (= v w))
:assumption (implies (and (= u w) (= m v) (= e_43 e_44) (= e_45 e_46)) (= v w))
:assumption (implies (and (= v w) (= m v) (= e_43 e_44) (= e_45 e_47)) (= v w))
:assumption (implies (and (= w w) (= m v) (= e_43 e_44) (= e_45 e_48)) (= v w))
:assumption (implies (and (= m w) (= u v) (= e_43 e_44) (= e_46 e_45)) (= v w))
:assumption (implies (and (= u w) (= u v) (= e_43 e_44) (= e_46 e_46)) (= v w))
:assumption (implies (and (= v w) (= u v) (= e_43 e_44) (= e_46 e_47)) (= v w))
:assumption (implies (and (= w w) (= u v) (= e_43 e_44) (= e_46 e_48)) (= v w))
:assumption (implies (and (= m w) (= v v) (= e_43 e_44) (= e_47 e_45)) (= v w))
:assumption (implies (and (= u w) (= v v) (= e_43 e_44) (= e_47 e_46)) (= v w))
:assumption (implies (and (= v w) (= v v) (= e_43 e_44) (= e_47 e_47)) (= v w))
:assumption (implies (and (= w w) (= v v) (= e_43 e_44) (= e_47 e_48)) (= v w))
:assumption (implies (and (= m w) (= w v) (= e_43 e_44) (= e_48 e_45)) (= v w))
:assumption (implies (and (= u w) (= w v) (= e_43 e_44) (= e_48 e_46)) (= v w))
:assumption (implies (and (= v w) (= w v) (= e_43 e_44) (= e_48 e_47)) (= v w))
:assumption (implies (and (= w w) (= w v) (= e_43 e_44) (= e_48 e_48)) (= v w))
:assumption (implies (and (= m m) (= m w) (= e_44 e_41) (= e_45 e_45)) (= w m))
:assumption (implies (and (= u m) (= m w) (= e_44 e_41) (= e_45 e_46)) (= w m))
:assumption (implies (and (= v m) (= m w) (= e_44 e_41) (= e_45 e_47)) (= w m))
:assumption (implies (and (= w m) (= m w) (= e_44 e_41) (= e_45 e_48)) (= w m))
:assumption (implies (and (= m m) (= u w) (= e_44 e_41) (= e_46 e_45)) (= w m))
:assumption (implies (and (= u m) (= u w) (= e_44 e_41) (= e_46 e_46)) (= w m))
:assumption (implies (and (= v m) (= u w) (= e_44 e_41) (= e_46 e_47)) (= w m))
:assumption (implies (and (= w m) (= u w) (= e_44 e_41) (= e_46 e_48)) (= w m))
:assumption (implies (and (= m m) (= v w) (= e_44 e_41) (= e_47 e_45)) (= w m))
:assumption (implies (and (= u m) (= v w) (= e_44 e_41) (= e_47 e_46)) (= w m))
:assumption (implies (and (= v m) (= v w) (= e_44 e_41) (= e_47 e_47)) (= w m))
:assumption (implies (and (= w m) (= v w) (= e_44 e_41) (= e_47 e_48)) (= w m))
:assumption (implies (and (= m m) (= w w) (= e_44 e_41) (= e_48 e_45)) (= w m))
:assumption (implies (and (= u m) (= w w) (= e_44 e_41) (= e_48 e_46)) (= w m))
:assumption (implies (and (= v m) (= w w) (= e_44 e_41) (= e_48 e_47)) (= w m))
:assumption (implies (and (= w m) (= w w) (= e_44 e_41) (= e_48 e_48)) (= w m))
:assumption (implies (and (= m u) (= m w) (= e_44 e_42) (= e_45 e_45)) (= w u))
:assumption (implies (and (= u u) (= m w) (= e_44 e_42) (= e_45 e_46)) (= w u))
:assumption (implies (and (= v u) (= m w) (= e_44 e_42) (= e_45 e_47)) (= w u))
:assumption (implies (and (= w u) (= m w) (= e_44 e_42) (= e_45 e_48)) (= w u))
:assumption (implies (and (= m u) (= u w) (= e_44 e_42) (= e_46 e_45)) (= w u))
:assumption (implies (and (= u u) (= u w) (= e_44 e_42) (= e_46 e_46)) (= w u))
:assumption (implies (and (= v u) (= u w) (= e_44 e_42) (= e_46 e_47)) (= w u))
:assumption (implies (and (= w u) (= u w) (= e_44 e_42) (= e_46 e_48)) (= w u))
:assumption (implies (and (= m u) (= v w) (= e_44 e_42) (= e_47 e_45)) (= w u))
:assumption (implies (and (= u u) (= v w) (= e_44 e_42) (= e_47 e_46)) (= w u))
:assumption (implies (and (= v u) (= v w) (= e_44 e_42) (= e_47 e_47)) (= w u))
:assumption (implies (and (= w u) (= v w) (= e_44 e_42) (= e_47 e_48)) (= w u))
:assumption (implies (and (= m u) (= w w) (= e_44 e_42) (= e_48 e_45)) (= w u))
:assumption (implies (and (= u u) (= w w) (= e_44 e_42) (= e_48 e_46)) (= w u))
:assumption (implies (and (= v u) (= w w) (= e_44 e_42) (= e_48 e_47)) (= w u))
:assumption (implies (and (= w u) (= w w) (= e_44 e_42) (= e_48 e_48)) (= w u))
:assumption (implies (and (= m v) (= m w) (= e_44 e_43) (= e_45 e_45)) (= w v))
:assumption (implies (and (= u v) (= m w) (= e_44 e_43) (= e_45 e_46)) (= w v))
:assumption (implies (and (= v v) (= m w) (= e_44 e_43) (= e_45 e_47)) (= w v))
:assumption (implies (and (= w v) (= m w) (= e_44 e_43) (= e_45 e_48)) (= w v))
:assumption (implies (and (= m v) (= u w) (= e_44 e_43) (= e_46 e_45)) (= w v))
:assumption (implies (and (= u v) (= u w) (= e_44 e_43) (= e_46 e_46)) (= w v))
:assumption (implies (and (= v v) (= u w) (= e_44 e_43) (= e_46 e_47)) (= w v))
:assumption (implies (and (= w v) (= u w) (= e_44 e_43) (= e_46 e_48)) (= w v))
:assumption (implies (and (= m v) (= v w) (= e_44 e_43) (= e_47 e_45)) (= w v))
:assumption (implies (and (= u v) (= v w) (= e_44 e_43) (= e_47 e_46)) (= w v))
:assumption (implies (and (= v v) (= v w) (= e_44 e_43) (= e_47 e_47)) (= w v))
:assumption (implies (and (= w v) (= v w) (= e_44 e_43) (= e_47 e_48)) (= w v))
:assumption (implies (and (= m v) (= w w) (= e_44 e_43) (= e_48 e_45)) (= w v))
:assumption (implies (and (= u v) (= w w) (= e_44 e_43) (= e_48 e_46)) (= w v))
:assumption (implies (and (= v v) (= w w) (= e_44 e_43) (= e_48 e_47)) (= w v))
:assumption (implies (and (= w v) (= w w) (= e_44 e_43) (= e_48 e_48)) (= w v))
)
